p cnf 10 40
9 5 7 0
8 9 3 0
10 2 4 0
6 1 -9 0
-5 6 8 0
9 -1 2 0
-10 9 1 0
4 5 7 0
10 8 -6 0
-8 -9 -2 0
4 10 -3 0
-2 5 10 0
9 -2 -10 0
9 10 7 0
-9 3 1 0
-6 10 -1 0
-5 -4 -2 0
6 -1 7 0
-5 1 -6 0
6 -8 -10 0
1 7 -4 0
8 1 -4 0
4 10 -8 0
5 9 6 0
3 7 -8 0
10 -2 4 0
3 5 4 0
6 -1 3 0
1 -4 2 0
-1 -6 -4 0
-9 -7 -8 0
2 -5 8 0
3 6 5 0
-4 -10 2 0
-1 -10 -4 0
-4 -6 -5 0
-7 4 3 0
4 -9 3 0
-4 2 -5 0
-6 -2 -3 0
